 24
 763783 914370 831207 100284 487486 182921 369532 727094 272162 227474 170387 697344 266796 41169 937876 883615 923090 385246 839734 423575 33377 975193 69579 418849
 1559844 1724668 1548321 186455 1012952 337633 806295 1329837 546869 446874 316848 1399126 578882 79486 1816706 1665934 1917601 770200 1732704 806240 65751 1870594 140713 859568
 5971071